
Gurobi 9.5.2 (mac64[arm]) logging started Wed Apr 19 20:15:30 2023

Set parameter LogFile to value "Java/output/iterative_model/scenario_seed_2_nJob_40_machineCount_1/mip_increment_2/log.txt"
Gurobi Optimizer version 9.5.2 build v9.5.2rc0 (mac64[arm])
Thread count: 8 physical cores, 8 logical processors, using up to 8 threads
Optimize a model with 995 rows, 6045 columns and 41727 nonzeros
Model fingerprint: 0xb8cb093f
Variable types: 0 continuous, 6045 integer (6045 binary)
Coefficient statistics:
  Matrix range     [1e+00, 3e+02]
  Objective range  [2e+01, 1e+07]
  Bounds range     [1e+00, 1e+00]
  RHS range        [1e+00, 1e+00]
Found heuristic solution: objective 4.841069e+07
Presolve removed 39 rows and 379 columns
Presolve time: 0.06s
Presolved: 956 rows, 5666 columns, 37932 nonzeros
Variable types: 0 continuous, 5666 integer (5658 binary)
Found heuristic solution: objective 4.025987e+07

Root relaxation: objective 1.121401e+04, 1771 iterations, 0.04 seconds (0.08 work units)

    Nodes    |    Current Node    |     Objective Bounds      |     Work
 Expl Unexpl |  Obj  Depth IntInf | Incumbent    BestBd   Gap | It/Node Time

     0     0 11214.0140    0   89 4.0260e+07 11214.0140   100%     -    0s
H    0     0                    1.674621e+07 11214.0140   100%     -    0s
H    0     0                    1524160.0000 11214.0140  99.3%     -    0s
     0     0 11292.6301    0  138 1524160.00 11292.6301  99.3%     -    0s
H    0     0                    1450464.0000 11292.6301  99.2%     -    0s
     0     0 11293.1236    0  138 1450464.00 11293.1236  99.2%     -    0s
     0     0 11327.7088    0  150 1450464.00 11327.7088  99.2%     -    0s
H    0     0                    1450400.0000 11327.7088  99.2%     -    0s
H    0     0                    952448.00000 11327.7088  98.8%     -    0s
     0     0 11334.7069    0  155 952448.000 11334.7069  98.8%     -    0s
     0     0 11335.3266    0  158 952448.000 11335.3266  98.8%     -    0s
     0     0 11335.3266    0  158 952448.000 11335.3266  98.8%     -    0s
H    0     0                    553888.00000 11335.3266  98.0%     -    0s
H    0     0                    156672.00000 11335.3266  92.8%     -    0s
     0     0 11636.5256    0  162 156672.000 11636.5256  92.6%     -    0s
     0     0 11636.5256    0   99 156672.000 11636.5256  92.6%     -    0s
H    0     0                    156640.00000 11636.5256  92.6%     -    0s
     0     0 11636.5256    0  154 156640.000 11636.5256  92.6%     -    0s
H    0     0                    156608.00000 11636.5256  92.6%     -    0s
     0     0 11658.8464    0  144 156608.000 11658.8464  92.6%     -    0s
     0     0 11678.7777    0  158 156608.000 11678.7777  92.5%     -    0s
     0     0 11679.2735    0  157 156608.000 11679.2735  92.5%     -    0s
H    0     0                    155104.00000 11679.2735  92.5%     -    0s
H    0     0                    155040.00000 11679.2735  92.5%     -    0s
     0     0 11762.4815    0  180 155040.000 11762.4815  92.4%     -    0s
H    0     0                    155008.00000 11762.4815  92.4%     -    0s
     0     0 11763.3172    0  182 155008.000 11763.3172  92.4%     -    0s
     0     0 12767.8172    0  184 155008.000 12767.8172  91.8%     -    0s
H    0     0                    154848.00000 12767.8172  91.8%     -    0s
     0     0 12783.7951    0  182 154848.000 12783.7951  91.7%     -    0s
     0     0 12799.5733    0  185 154848.000 12799.5733  91.7%     -    0s
     0     0 12801.6806    0  200 154848.000 12801.6806  91.7%     -    0s
     0     0 12801.9834    0  194 154848.000 12801.9834  91.7%     -    0s
     0     0 13417.8156    0  184 154848.000 13417.8156  91.3%     -    0s
     0     0 14488.4834    0  189 154848.000 14488.4834  90.6%     -    0s
     0     0 14538.1388    0  197 154848.000 14538.1388  90.6%     -    1s
H    0     0                    66912.000000 14538.1388  78.3%     -    1s
     0     0 14539.8415    0  206 66912.0000 14539.8415  78.3%     -    1s
     0     0 14541.8828    0  213 66912.0000 14541.8828  78.3%     -    1s
     0     0 14541.9797    0  210 66912.0000 14541.9797  78.3%     -    1s
     0     0 15371.8951    0  190 66912.0000 15371.8951  77.0%     -    1s
H    0     0                    61024.000000 15371.8951  74.8%     -    1s
H    0     0                    59488.000000 15371.8951  74.2%     -    1s
     0     0 15385.0471    0  207 59488.0000 15385.0471  74.1%     -    1s
     0     0 15389.4832    0  215 59488.0000 15389.4832  74.1%     -    1s
     0     0 15390.2257    0  217 59488.0000 15390.2257  74.1%     -    1s
     0     0 15940.6506    0  213 59488.0000 15940.6506  73.2%     -    1s
     0     0 15960.3638    0  211 59488.0000 15960.3638  73.2%     -    1s
     0     0 15961.8750    0  224 59488.0000 15961.8750  73.2%     -    1s
     0     0 16092.5885    0  221 59488.0000 16092.5885  72.9%     -    1s
H    0     0                    53056.000000 16092.5885  69.7%     -    1s
     0     0 16160.6570    0  210 53056.0000 16160.6570  69.5%     -    1s
     0     0 16169.2990    0  207 53056.0000 16169.2990  69.5%     -    1s
     0     0 16170.4473    0  207 53056.0000 16170.4473  69.5%     -    1s
     0     0 16641.4812    0  203 53056.0000 16641.4812  68.6%     -    1s
H    0     0                    52960.000000 16641.4812  68.6%     -    1s
H    0     0                    52928.000000 16641.4812  68.6%     -    1s
     0     0 16674.1529    0  214 52928.0000 16674.1529  68.5%     -    1s
     0     0 16685.1577    0  228 52928.0000 16685.1577  68.5%     -    1s
     0     0 16686.2242    0  229 52928.0000 16686.2242  68.5%     -    1s
H    0     0                    52896.000000 16686.2242  68.5%     -    1s
H    0     0                    50912.000000 16686.2242  67.2%     -    1s
     0     0 16999.6224    0  222 50912.0000 16999.6224  66.6%     -    1s
H    0     0                    43680.000000 16999.6224  61.1%     -    1s
     0     0 17011.4425    0  231 43680.0000 17011.4425  61.1%     -    1s
     0     0 17016.0283    0  230 43680.0000 17016.0283  61.0%     -    1s
     0     0 17018.6125    0  253 43680.0000 17018.6125  61.0%     -    1s
H    0     0                    42976.000000 17018.6125  60.4%     -    1s
     0     0 18024.8192    0  231 42976.0000 18024.8192  58.1%     -    1s
H    0     0                    31488.000000 18024.8192  42.8%     -    1s
     0     0 19694.0060    0  210 31488.0000 19694.0060  37.5%     -    1s
     0     0 19719.8979    0  228 31488.0000 19719.8979  37.4%     -    1s
     0     0 19734.0782    0  234 31488.0000 19734.0782  37.3%     -    1s
     0     0 19736.7817    0  244 31488.0000 19736.7817  37.3%     -    1s
     0     0 21082.8027    0  232 31488.0000 21082.8027  33.0%     -    1s
     0     0 21119.4441    0  236 31488.0000 21119.4441  32.9%     -    1s
     0     0 21133.0831    0  257 31488.0000 21133.0831  32.9%     -    1s
     0     0 21135.8307    0  258 31488.0000 21135.8307  32.9%     -    1s
     0     0 24243.0563    0  226 31488.0000 24243.0563  23.0%     -    1s
     0     0 24876.0834    0  208 31488.0000 24876.0834  21.0%     -    1s
     0     0 24881.5552    0  231 31488.0000 24881.5552  21.0%     -    1s
     0     0 25359.5073    0  196 31488.0000 25359.5073  19.5%     -    1s
H    0     0                    30592.000000 25359.5073  17.1%     -    2s
H    0     0                    30368.000000 25359.5073  16.5%     -    2s
     0     0 25465.9577    0  227 30368.0000 25465.9577  16.1%     -    2s
     0     0 25473.4558    0  237 30368.0000 25473.4558  16.1%     -    2s
     0     0 30301.0063    0  205 30368.0000 30301.0063  0.22%     -    2s
     0     0 30302.9665    0  206 30368.0000 30302.9665  0.21%     -    2s
     0     0 30305.3498    0  219 30368.0000 30305.3498  0.21%     -    2s
     0     0 30305.3498    0   81 30368.0000 30305.3498  0.21%     -    2s
     0     0 30305.3498    0  124 30368.0000 30305.3498  0.21%     -    2s
     0     0 30305.3498    0  152 30368.0000 30305.3498  0.21%     -    2s
     0     0 30307.1975    0  167 30368.0000 30307.1975  0.20%     -    2s
     0     0 30319.7060    0  164 30368.0000 30319.7060  0.16%     -    2s
     0     0 30320.9954    0  171 30368.0000 30320.9954  0.15%     -    2s
     0     0 30321.3557    0  168 30368.0000 30321.3557  0.15%     -    2s
     0     0 30363.0099    0  102 30368.0000 30363.0099  0.02%     -    2s

Cutting planes:
  Cover: 3
  Clique: 26
  MIR: 38
  StrongCG: 10
  GUB cover: 39
  Zero half: 7
  RLT: 4
  Relax-and-lift: 3

Explored 1 nodes (29460 simplex iterations) in 2.24 seconds (3.20 work units)
Thread count was 8 (of 8 available processors)

Solution count 10: 30368 30368 30592 ... 52928

Optimal solution found (tolerance 1.00e-04)
Best objective 3.036800000000e+04, best bound 3.036800000000e+04, gap 0.0000%

Gurobi 9.5.2 (mac64[arm]) logging started Wed Apr 19 20:15:32 2023

Set parameter LogFile to value "Java/output/iterative_model/scenario_seed_2_nJob_40_machineCount_1/mip_increment_2/log.txt"
Gurobi Optimizer version 9.5.2 build v9.5.2rc0 (mac64[arm])
Thread count: 8 physical cores, 8 logical processors, using up to 8 threads
Optimize a model with 993 rows, 4293 columns and 30398 nonzeros
Model fingerprint: 0xc001d7de
Variable types: 0 continuous, 4293 integer (4293 binary)
Coefficient statistics:
  Matrix range     [1e+00, 3e+02]
  Objective range  [3e+02, 1e+06]
  Bounds range     [1e+00, 1e+00]
  RHS range        [1e+00, 1e+00]
Presolve removed 285 rows and 364 columns
Presolve time: 0.03s
Presolved: 708 rows, 3929 columns, 27157 nonzeros
Variable types: 0 continuous, 3929 integer (3923 binary)

Root relaxation: objective 7.821532e+03, 1406 iterations, 0.03 seconds (0.05 work units)

    Nodes    |    Current Node    |     Objective Bounds      |     Work
 Expl Unexpl |  Obj  Depth IntInf | Incumbent    BestBd   Gap | It/Node Time

     0     0 7821.53205    0   87          - 7821.53205      -     -    0s
H    0     0                    2398712.0000 7821.53205   100%     -    0s
H    0     0                    539568.00000 7821.53205  98.6%     -    0s
H    0     0                    406552.00000 7821.53205  98.1%     -    0s
H    0     0                    262720.00000 9125.76053  96.5%     -    0s
     0     0 9125.76053    0  138 262720.000 9125.76053  96.5%     -    0s
H    0     0                    155104.00000 9125.76053  94.1%     -    0s
H    0     0                    155032.00000 9135.01117  94.1%     -    0s
     0     0 9135.01117    0  144 155032.000 9135.01117  94.1%     -    0s
     0     0 9135.01117    0  144 155032.000 9135.01117  94.1%     -    0s
H    0     0                    44120.000000 9358.52558  78.8%     -    0s
     0     0 9358.52558    0  170 44120.0000 9358.52558  78.8%     -    0s
     0     0 9435.29367    0  168 44120.0000 9435.29367  78.6%     -    0s
     0     0 9435.80311    0  172 44120.0000 9435.80311  78.6%     -    0s
     0     0 9435.91593    0  172 44120.0000 9435.91593  78.6%     -    0s
     0     0 13276.5220    0  145 44120.0000 13276.5220  69.9%     -    0s
     0     0 13276.5220    0   89 44120.0000 13276.5220  69.9%     -    0s
H    0     0                    44064.000000 13276.5220  69.9%     -    0s
H    0     0                    43128.000000 13276.5220  69.2%     -    0s
     0     0 13276.5220    0  140 43128.0000 13276.5220  69.2%     -    0s
H    0     0                    43104.000000 13276.5220  69.2%     -    0s
     0     0 15087.3816    0  161 43104.0000 15087.3816  65.0%     -    0s
     0     0 15120.1199    0  157 43104.0000 15120.1199  64.9%     -    0s
     0     0 15120.1199    0  160 43104.0000 15120.1199  64.9%     -    0s
     0     0 16909.1342    0  176 43104.0000 16909.1342  60.8%     -    0s
H    0     0                    43080.000000 16909.1342  60.7%     -    0s
     0     0 16917.1328    0  168 43080.0000 16917.1328  60.7%     -    0s
     0     0 16917.1328    0  168 43080.0000 16917.1328  60.7%     -    0s
H    0     0                    35728.000000 16917.1328  52.7%     -    0s
     0     0 18323.9298    0  173 35728.0000 18323.9298  48.7%     -    0s
     0     0 18855.0972    0  187 35728.0000 18855.0972  47.2%     -    0s
     0     0 18919.6302    0  189 35728.0000 18919.6302  47.0%     -    0s
     0     0 18934.7933    0  189 35728.0000 18934.7933  47.0%     -    0s
     0     0 18937.6911    0  188 35728.0000 18937.6911  47.0%     -    0s
     0     0 19050.7008    0  216 35728.0000 19050.7008  46.7%     -    0s
H    0     0                    27272.000000 19050.7008  30.1%     -    0s
     0     0 19060.2051    0  227 27272.0000 19060.2051  30.1%     -    0s
     0     0 19062.5212    0  223 27272.0000 19062.5212  30.1%     -    0s
     0     0 19294.4813    0  176 27272.0000 19294.4813  29.3%     -    0s
H    0     0                    26272.000000 19294.4813  26.6%     -    0s
     0     0 19385.7430    0  162 26272.0000 19385.7430  26.2%     -    0s
     0     0 19404.9469    0  155 26272.0000 19404.9469  26.1%     -    0s
     0     0 19405.7776    0  162 26272.0000 19405.7776  26.1%     -    0s
     0     0 19652.2222    0  193 26272.0000 19652.2222  25.2%     -    0s
H    0     0                    26248.000000 19652.2222  25.1%     -    0s
     0     0 19665.3468    0  194 26248.0000 19665.3468  25.1%     -    0s
     0     0 19672.0524    0  196 26248.0000 19672.0524  25.1%     -    0s
     0     0 19729.3278    0  198 26248.0000 19729.3278  24.8%     -    0s
     0     0 19736.0000    0    2 26248.0000 19736.0000  24.8%     -    0s
H    0     0                    19736.000000 19736.0000  0.00%     -    0s
     0     0 19736.0000    0    2 19736.0000 19736.0000  0.00%     -    0s

Cutting planes:
  Gomory: 1
  Cover: 1
  Clique: 40
  MIR: 34
  StrongCG: 13
  GUB cover: 42
  Zero half: 8

Explored 1 nodes (10693 simplex iterations) in 0.83 seconds (1.17 work units)
Thread count was 8 (of 8 available processors)

Solution count 10: 19736 26248 26272 ... 44120

Optimal solution found (tolerance 1.00e-04)
Best objective 1.973600000000e+04, best bound 1.973600000000e+04, gap 0.0000%

Gurobi 9.5.2 (mac64[arm]) logging started Wed Apr 19 20:15:33 2023

Set parameter LogFile to value "Java/output/iterative_model/scenario_seed_2_nJob_40_machineCount_1/mip_increment_2/log.txt"
Gurobi Optimizer version 9.5.2 build v9.5.2rc0 (mac64[arm])
Thread count: 8 physical cores, 8 logical processors, using up to 8 threads
Optimize a model with 998 rows, 2921 columns and 19916 nonzeros
Model fingerprint: 0x11883048
Variable types: 0 continuous, 2921 integer (2921 binary)
Coefficient statistics:
  Matrix range     [1e+00, 3e+02]
  Objective range  [2e+02, 1e+05]
  Bounds range     [1e+00, 1e+00]
  RHS range        [1e+00, 1e+00]
Presolve removed 517 rows and 387 columns
Presolve time: 0.02s
Presolved: 481 rows, 2534 columns, 16804 nonzeros
Variable types: 0 continuous, 2534 integer (2528 binary)

Root relaxation: objective 7.465904e+03, 1015 iterations, 0.02 seconds (0.02 work units)

    Nodes    |    Current Node    |     Objective Bounds      |     Work
 Expl Unexpl |  Obj  Depth IntInf | Incumbent    BestBd   Gap | It/Node Time

     0     0 7465.90449    0  103          - 7465.90449      -     -    0s
H    0     0                    191875.00000 7465.96124  96.1%     -    0s
H    0     0                    122761.00000 7465.96124  93.9%     -    0s
H    0     0                    99043.000000 7465.96124  92.5%     -    0s
     0     0 7971.54371    0  150 99043.0000 7971.54371  92.0%     -    0s
H    0     0                    22979.000000 7971.54371  65.3%     -    0s
     0     0 8050.06526    0  157 22979.0000 8050.06526  65.0%     -    0s
H    0     0                    19599.000000 8522.53671  56.5%     -    0s
H    0     0                    18991.000000 8522.53671  55.1%     -    0s
     0     0 8522.53671    0  125 18991.0000 8522.53671  55.1%     -    0s
H    0     0                    16343.000000 8525.23848  47.8%     -    0s
     0     0 8525.23848    0  121 16343.0000 8525.23848  47.8%     -    0s
     0     0 8525.23848    0  121 16343.0000 8525.23848  47.8%     -    0s
H    0     0                    15979.000000 8525.23848  46.6%     -    0s
     0     0 8566.77659    0  106 15979.0000 8566.77659  46.4%     -    0s
     0     0 8566.77659    0   97 15979.0000 8566.77659  46.4%     -    0s
H    0     0                    15977.000000 8566.77659  46.4%     -    0s
     0     0 8566.77659    0  159 15977.0000 8566.77659  46.4%     -    0s
     0     0 8566.77659    0   92 15977.0000 8566.77659  46.4%     -    0s
     0     0 8566.77659    0  115 15977.0000 8566.77659  46.4%     -    0s
     0     0 8566.85621    0   78 15977.0000 8566.85621  46.4%     -    0s
     0     0 8567.02071    0  104 15977.0000 8567.02071  46.4%     -    0s
H    0     0                    15965.000000 8567.02071  46.3%     -    0s
     0     0 8582.72839    0  127 15965.0000 8582.72839  46.2%     -    0s
     0     0 8584.02634    0  118 15965.0000 8584.02634  46.2%     -    0s
     0     0 8584.02932    0  124 15965.0000 8584.02932  46.2%     -    0s
H    0     0                    15175.000000 8584.02932  43.4%     -    0s
     0     0 8590.99074    0  135 15175.0000 8590.99074  43.4%     -    0s
     0     0 8592.41848    0  123 15175.0000 8592.41848  43.4%     -    0s
     0     0 8592.43902    0  125 15175.0000 8592.43902  43.4%     -    0s
     0     0 8595.00000    0   72 15175.0000 8595.00000  43.4%     -    0s
H    0     0                    14929.000000 8595.00000  42.4%     -    0s
     0     0 8595.00000    0   71 14929.0000 8595.00000  42.4%     -    0s
     0     0 8600.04741    0  136 14929.0000 8600.04741  42.4%     -    0s
     0     0 8600.04741    0  136 14929.0000 8600.04741  42.4%     -    0s
H    0     0                    8627.0000000 8602.07827  0.29%     -    0s
     0     0 8603.00000    0    5 8627.00000 8603.00000  0.28%     -    0s
H    0     0                    8603.0000000 8603.00000  0.00%     -    0s
     0     0 8603.00000    0    5 8603.00000 8603.00000  0.00%     -    0s

Explored 1 nodes (9503 simplex iterations) in 0.63 seconds (0.83 work units)
Thread count was 8 (of 8 available processors)

Solution count 10: 8603 8627 8627 ... 16343

Optimal solution found (tolerance 1.00e-04)
Best objective 8.603000000000e+03, best bound 8.603000000000e+03, gap 0.0000%

Gurobi 9.5.2 (mac64[arm]) logging started Wed Apr 19 20:15:34 2023

Set parameter LogFile to value "Java/output/iterative_model/scenario_seed_2_nJob_40_machineCount_1/mip_increment_2/log.txt"
Gurobi Optimizer version 9.5.2 build v9.5.2rc0 (mac64[arm])
Thread count: 8 physical cores, 8 logical processors, using up to 8 threads
Optimize a model with 2050 rows, 36462 columns and 406833 nonzeros
Model fingerprint: 0x76942462
Variable types: 0 continuous, 36462 integer (36462 binary)
Coefficient statistics:
  Matrix range     [1e+00, 3e+02]
  Objective range  [2e+00, 1e+07]
  Bounds range     [1e+00, 1e+00]
  RHS range        [1e+00, 1e+00]

Warning: Completing partial solution with 36344 unfixed non-continuous variables out of 36462
User MIP start produced solution with objective 28047 (0.03s)
Loaded user MIP start with objective 28047

Presolve removed 33 rows and 2402 columns
Presolve time: 0.41s
Presolved: 2017 rows, 34060 columns, 374420 nonzeros
Variable types: 0 continuous, 34060 integer (34036 binary)
Found heuristic solution: objective 28032.000000

Root simplex log...

Iteration    Objective       Primal Inf.    Dual Inf.      Time
   36115    1.8713422e+04   1.772266e+04   0.000000e+00      5s
   40555    1.8774114e+04   0.000000e+00   0.000000e+00      6s

Root relaxation: objective 1.877411e+04, 40555 iterations, 5.43 seconds (13.88 work units)

    Nodes    |    Current Node    |     Objective Bounds      |     Work
 Expl Unexpl |  Obj  Depth IntInf | Incumbent    BestBd   Gap | It/Node Time

     0     0 18774.1139    0  411 28032.0000 18774.1139  33.0%     -    6s
H    0     0                    27828.000000 18774.1139  32.5%     -    6s
H    0     0                    27502.000000 18774.1139  31.7%     -    6s
H    0     0                    27480.000000 18881.6054  31.3%     -    9s
H    0     0                    27477.000000 18881.6054  31.3%     -    9s
     0     0 18881.6054    0  636 27477.0000 18881.6054  31.3%     -    9s
     0     0 18884.9209    0  627 27477.0000 18884.9209  31.3%     -    9s
     0     0 18885.2788    0  651 27477.0000 18885.2788  31.3%     -    9s
H    0     0                    27325.000000 18885.2788  30.9%     -   10s
     0     0 18885.2788    0  657 27325.0000 18885.2788  30.9%     -   10s
     0     0 18937.9473    0  685 27325.0000 18937.9473  30.7%     -   14s
     0     0 19015.1393    0  488 27325.0000 19015.1393  30.4%     -   19s
H    0     0                    27320.000000 19015.1393  30.4%     -   19s
H    0     0                    26024.000000 19015.1393  26.9%     -   19s
     0     0 19453.2914    0  644 26024.0000 19453.2914  25.2%     -   23s
     0     0 19478.0379    0  697 26024.0000 19478.0379  25.2%     -   25s
     0     0 19481.8753    0  697 26024.0000 19481.8753  25.1%     -   26s
     0     0 19483.1329    0  704 26024.0000 19483.1329  25.1%     -   26s
     0     0 19483.1997    0  701 26024.0000 19483.1997  25.1%     -   27s
     0     0 19617.3365    0  764 26024.0000 19617.3365  24.6%     -   32s
     0     0 20031.8070    0  774 26024.0000 20031.8070  23.0%     -   37s
     0     0 20043.3832    0  816 26024.0000 20043.3832  23.0%     -   39s
     0     0 20045.3262    0  843 26024.0000 20045.3262  23.0%     -   40s
     0     0 20045.4069    0  824 26024.0000 20045.4069  23.0%     -   41s
     0     0 20101.5118    0  822 26024.0000 20101.5118  22.8%     -   43s
     0     0 20131.0066    0  881 26024.0000 20131.0066  22.6%     -   48s
     0     0 20132.0005    0  885 26024.0000 20132.0005  22.6%     -   50s
     0     0 20132.3885    0  895 26024.0000 20132.3885  22.6%     -   50s
     0     0 20446.9282    0  891 26024.0000 20446.9282  21.4%     -   55s
H    0     0                    26004.000000 20446.9282  21.4%     -   55s
     0     0 20496.7493    0  898 26004.0000 20496.7493  21.2%     -   60s
     0     0 20535.6971    0  931 26004.0000 20535.6971  21.0%     -   68s
     0     0 20536.0986    0  910 26004.0000 20536.0986  21.0%     -   69s
     0     0 22272.8212    0  893 26004.0000 22272.8212  14.3%     -   73s
     0     0 22899.8678    0  904 26004.0000 22899.8678  11.9%     -   77s
     0     0 22913.1077    0  952 26004.0000 22913.1077  11.9%     -   80s
     0     0 22915.6508    0  981 26004.0000 22915.6508  11.9%     -   81s
     0     0 22916.2638    0  985 26004.0000 22916.2638  11.9%     -   82s
     0     0 23818.8740    0  969 26004.0000 23818.8740  8.40%     -   91s
     0     0 23836.9153    0  970 26004.0000 23836.9153  8.33%     -   94s
     0     0 23840.6495    0 1019 26004.0000 23840.6495  8.32%     -   96s
     0     0 23843.1601    0 1074 26004.0000 23843.1601  8.31%     -   98s
     0     0 23843.4452    0 1083 26004.0000 23843.4452  8.31%     -   98s
     0     0 24042.3298    0 1054 26004.0000 24042.3298  7.54%     -  108s
H    0     0                    25972.000000 24042.3298  7.43%     -  114s
     0     0 24070.8726    0 1068 25972.0000 24070.8726  7.32%     -  114s
     0     0 24073.2823    0 1104 25972.0000 24073.2823  7.31%     -  115s
     0     0 24130.7756    0 1066 25972.0000 24130.7756  7.09%     -  120s
H    0     0                    25967.000000 24130.7756  7.07%     -  126s
     0     0 24147.4292    0 1073 25967.0000 24147.4292  7.01%     -  126s
     0     0 24157.1525    0 1078 25967.0000 24157.1525  6.97%     -  130s
     0     0 24158.9336    0 1083 25967.0000 24158.9336  6.96%     -  131s
     0     0 24219.1692    0 1127 25967.0000 24219.1692  6.73%     -  136s
H    0     0                    25959.000000 24219.1692  6.70%     -  136s
     0     0 24225.2086    0 1126 25959.0000 24225.2086  6.68%     -  138s
     0     0 24230.0805    0 1168 25959.0000 24230.0805  6.66%     -  140s
     0     0 24232.0425    0 1205 25959.0000 24232.0425  6.65%     -  142s
     0     0 24341.5242    0 1155 25959.0000 24341.5242  6.23%     -  147s
H    0     0                    25901.000000 24341.5242  6.02%     -  147s
     0     0 24351.2845    0 1171 25901.0000 24351.2845  5.98%     -  151s
     0     0 24356.1250    0 1244 25901.0000 24356.1250  5.96%     -  154s
     0     0 24357.6744    0 1253 25901.0000 24357.6744  5.96%     -  155s
     0     0 24404.5580    0 1138 25901.0000 24404.5580  5.78%     -  162s
H    0     0                    25889.000000 24404.5580  5.73%     -  165s
H    0     0                    25875.000000 24404.5580  5.68%     -  168s
     0     0 24410.9616    0 1163 25875.0000 24410.9616  5.66%     -  168s
     0     0 24416.8752    0 1166 25875.0000 24416.8752  5.64%     -  171s
     0     0 24417.8941    0 1146 25875.0000 24417.8941  5.63%     -  172s
     0     0 24450.7809    0 1155 25875.0000 24450.7809  5.50%     -  177s
     0     0 24450.7829    0 1142 25875.0000 24450.7829  5.50%     -  177s
H    0     0                    25861.000000 24450.7829  5.45%     -  186s
H    0     0                    25595.000000 24450.8817  4.47%     -  188s
     0     0 24450.8817    0  471 25595.0000 24450.8817  4.47%     -  190s
H    0     0                    25416.000000 24450.8817  3.80%     -  190s
H    0     0                    25413.000000 24450.8817  3.79%     -  190s
H    0     0                    25408.000000 24450.8817  3.77%     -  190s
H    0     0                    25407.000000 24450.8817  3.76%     -  191s
H    0     0                    25400.000000 24450.8817  3.74%     -  191s
     0     0 24450.8817    0  609 25400.0000 24450.8817  3.74%     -  192s
H    0     0                    25398.000000 24450.8817  3.73%     -  192s
     0     0 24450.8817    0  738 25398.0000 24450.8817  3.73%     -  194s
     0     0 24450.8817    0  876 25398.0000 24450.8817  3.73%     -  197s
     0     0 24456.2453    0  979 25398.0000 24456.2453  3.71%     -  200s
     0     0 24465.1051    0 1027 25398.0000 24465.1051  3.67%     -  202s
     0     0 24467.7349    0 1056 25398.0000 24467.7349  3.66%     -  202s
     0     0 24468.4644    0 1070 25398.0000 24468.4644  3.66%     -  203s
     0     0 24468.6077    0 1060 25398.0000 24468.6077  3.66%     -  203s
     0     0 24468.6616    0 1062 25398.0000 24468.6616  3.66%     -  203s
     0     0 24468.6642    0 1043 25398.0000 24468.6642  3.66%     -  203s
     0     0 24485.0431    0 1120 25398.0000 24485.0431  3.59%     -  206s
H    0     0                    25396.000000 24485.0431  3.59%     -  206s
     0     0 24495.9500    0 1144 25396.0000 24495.9500  3.54%     -  208s
     0     0 24497.1057    0 1147 25396.0000 24497.1057  3.54%     -  209s
     0     0 24497.5344    0 1138 25396.0000 24497.5344  3.54%     -  209s
     0     0 24497.9618    0 1134 25396.0000 24497.9618  3.54%     -  210s
     0     0 24498.2373    0 1135 25396.0000 24498.2373  3.54%     -  210s
     0     0 24512.9965    0 1176 25396.0000 24512.9965  3.48%     -  213s
     0     0 24517.5289    0 1208 25396.0000 24517.5289  3.46%     -  217s
     0     0 24518.9974    0 1178 25396.0000 24518.9974  3.45%     -  218s
     0     0 24519.2345    0 1187 25396.0000 24519.2345  3.45%     -  218s
     0     0 24527.3448    0 1228 25396.0000 24527.3448  3.42%     -  220s
H    0     0                    25394.000000 24527.3448  3.41%     -  220s
     0     0 24531.5331    0 1225 25394.0000 24531.5331  3.40%     -  222s
H    0     0                    25390.000000 24531.5331  3.38%     -  223s
     0     0 24532.5334    0 1237 25390.0000 24532.5334  3.38%     -  223s
     0     0 24532.8129    0 1240 25390.0000 24532.8129  3.38%     -  223s
     0     0 24539.6893    0 1277 25390.0000 24539.6893  3.35%     -  226s
H    0     0                    25388.000000 24539.6893  3.34%     -  226s
H    0     0                    25387.000000 24539.6893  3.34%     -  228s
H    0     0                    25325.000000 24539.6893  3.10%     -  230s
     0     0 24541.5812    0 1302 25325.0000 24541.5812  3.09%     -  230s
     0     0 24542.5481    0 1320 25325.0000 24542.5481  3.09%     -  231s
     0     0 24542.6406    0 1341 25325.0000 24542.6406  3.09%     -  231s
     0     0 24546.4157    0 1352 25325.0000 24546.4157  3.07%     -  233s
H    0     0                    25321.000000 24546.4157  3.06%     -  233s
     0     0 24547.1829    0 1393 25321.0000 24547.1829  3.06%     -  234s
     0     0 24547.5015    0 1400 25321.0000 24547.5015  3.05%     -  234s
     0     0 24548.9697    0 1403 25321.0000 24548.9697  3.05%     -  236s
     0     0 24548.9697    0 1403 25321.0000 24548.9697  3.05%     -  236s
     0     2 24549.0177    0 1391 25321.0000 24549.0177  3.05%     -  241s
     1     4 24556.9596    1 1341 25321.0000 24549.0177  3.05%  4371  245s
     3     8 24564.8706    2 1316 25321.0000 24556.9606  3.02%  6907  250s
     7    16 24596.3254    3 1259 25321.0000 24564.8706  2.99% 11331  259s
    15    24 24621.7544    4 1307 25321.0000 24570.6460  2.96% 13591  264s
    23    32 24609.2598    4 1274 25321.0000 24570.6460  2.96% 12839  273s
H   31    40                    25317.000000 24597.9772  2.84% 12126  290s
H   32    40                    25255.000000 24597.9772  2.60% 12015  290s
H   36    40                    25237.000000 24597.9772  2.53% 12813  290s
    47    55 24619.8648    6 1256 25237.0000 24606.3668  2.50% 12184  302s
    58    62 24620.2300    7 1251 25237.0000 24606.3832  2.50% 10732  308s
H   69    69                    25233.000000 24606.3832  2.48%  9544  315s
H   71    69                    25230.000000 24606.3832  2.47%  9756  315s
H   77    69                    25212.000000 24606.3832  2.40%  9372  315s
    78    76 24639.6197    8 1215 25212.0000 24606.3832  2.40%  9516  324s
    87    81 24728.0916    9 1119 25212.0000 24606.3832  2.40% 10057  338s
    98    88 24769.2324    9 1183 25212.0000 24606.3832  2.40% 10291  344s
H  109    97                    25211.000000 24606.3832  2.40%  9660  351s
H  110    97                    25208.000000 24606.3832  2.39%  9653  351s
H  112    97                    25204.000000 24606.3832  2.37%  9594  351s
H  117    97                    25199.000000 24606.3832  2.35%  9413  351s
   120   103 24816.3528   10 1097 25199.0000 24606.3832  2.35%  9528  368s
   128   112 24867.3604   11 1100 25199.0000 24606.3832  2.35% 10315  376s
   143   116 24817.1437   11 1118 25199.0000 24606.3832  2.35%  9817  381s
H  157   122                    25198.000000 24606.3832  2.35%  9377  386s
H  157   122                    25194.000000 24606.3832  2.33%  9377  386s
H  159   122                    25176.000000 24606.3832  2.26%  9317  386s
   174   133 24817.9481   13 1100 25176.0000 24606.3832  2.26%  8859  395s
   193   145 25066.0849   15  942 25176.0000 24606.3832  2.26%  8513  402s
H  209   152                    25161.000000 24606.3832  2.20%  8431  412s
H  210   152                    25159.000000 24606.3832  2.20%  8479  412s
H  210   152                    25151.000000 24606.3832  2.17%  8479  412s
   220   169     cutoff   16      25151.0000 24606.3832  2.17%  8405  419s
   243   185 24990.0301   17  992 25151.0000 24606.3832  2.17%  7975  426s
H  245   185                    25141.000000 24606.3832  2.13%  7923  426s
H  248   185                    25098.000000 24606.3832  1.96%  7859  426s
   268   198 25025.8557   19  944 25098.0000 24606.3832  1.96%  7521  432s
H  295   207                    25093.000000 24606.3832  1.94%  7124  439s
H  296   207                    25089.000000 24606.3832  1.92%  7110  439s
H  299   207                    25084.000000 24606.3832  1.90%  7071  439s
   312   215 25041.9283   21  890 25084.0000 24606.3832  1.90%  6907  457s
   336   228     cutoff   23      25084.0000 24606.3832  1.90%  6798  464s
   355   240     cutoff   26      25084.0000 24606.3832  1.90%  6912  472s
   385   253 24914.9076    7  991 25084.0000 24621.7544  1.84%  6712  480s
   406   267 24961.5756    8  893 25084.0000 24621.7544  1.84%  6788  489s
   444   286 25005.0498   12  891 25084.0000 24621.7544  1.84%  6485  499s
   485   304 25074.4205   16  827 25084.0000 24621.7544  1.84%  6210  506s
   517   320 infeasible   17      25084.0000 24627.1675  1.82%  6233  515s
   553   346 24673.6748    6 1277 25084.0000 24636.0391  1.79%  6075  525s
   592   360 24685.6749    7 1234 25084.0000 24636.0391  1.79%  6109  535s
   618   383 24789.5126    8 1108 25084.0000 24636.0391  1.79%  6113  544s
   647   399 24810.1881    8 1119 25084.0000 24636.0391  1.79%  6189  565s
   672   424 24814.9870   10 1183 25084.0000 24636.0391  1.79%  6226  585s
   705   450 24861.0614   10  987 25084.0000 24636.0391  1.79%  6259  595s

Cutting planes:
  Gomory: 1
  Cover: 28
  Clique: 325
  MIR: 473
  StrongCG: 267
  GUB cover: 235
  Inf proof: 2
  Zero half: 18
  RLT: 3
  Relax-and-lift: 2

Explored 743 nodes (5319285 simplex iterations) in 595.02 seconds (1740.48 work units)
Thread count was 8 (of 8 available processors)

Solution count 10: 25084 25089 25093 ... 25194

Time limit reached
Best objective 2.508400000000e+04, best bound 2.463700000000e+04, gap 1.7820%
